# Solution for model GasLib-40
# Objective value = 4.4662780820024537e+01
loadshed[innode_1] 0
loadshed[innode_2] 0
loadshed[innode_3] 0
loadshed[innode_4] 0
loadshed[innode_5] 0
loadshed[innode_6] 0
loadshed[innode_7] 0
loadshed[innode_8] 0
loadshed[source_1] -1.1916804589653984e-01
loadshed[source_2] 4.2521249959845187e-02
loadshed[source_3] 3.5916120129931406e-01
loadshed[sink_1] 0
loadshed[sink_2] 0
loadshed[sink_3] 0
loadshed[sink_4] 0
loadshed[sink_5] 0
loadshed[sink_6] 0
loadshed[sink_7] 0
loadshed[sink_8] 0
loadshed[sink_9] 0
loadshed[sink_10] 0
loadshed[sink_11] 0
loadshed[sink_12] 1
loadshed[sink_13] 0
loadshed[sink_14] 0
loadshed[sink_15] 0
loadshed[sink_16] 0
loadshed[sink_17] 0
loadshed[sink_18] 0
loadshed[sink_19] 0
loadshed[sink_20] 0
loadshed[sink_21] 1
loadshed[sink_22] 0
loadshed[sink_23] 0
loadshed[sink_24] 7.3097258517347485e-01
loadshed[sink_25] 0
loadshed[sink_26] 0
loadshed[sink_27] 0
loadshed[sink_28] 0
loadshed[sink_29] 0
flow[source_1,sink_3] 1.7692958725579672e+02
flow[innode_1,sink_16] 1.6354166666666970e+01
flow[innode_6,sink_13] 1.3168782969311451e+01
flow[sink_13,sink_14] -3.1853836973552170e+00
flow[sink_14,sink_10] -1.9539550364021920e+01
flow[sink_25,sink_26] 1.2627060836155556e+02
flow[sink_26,sink_9] 1.6354166666669244e+01
flow[sink_9,sink_18] 0
flow[sink_26,sink_4] 9.3562275028219858e+01
flow[sink_4,sink_20] -4.1670777485090525e+01
flow[sink_18,sink_6] -1.6354166666667879e+01
flow[sink_25,innode_8] -1.4422125392246033e+02
flow[sink_6,sink_7] -6.5416666666666671e+01
flow[sink_6,sink_22] 3.2708333333333641e+01
flow[sink_7,sink_24] 4.39971917997546
flow[sink_22,sink_1] 1.6354166666666970e+01
flow[sink_24,sink_21] 0
flow[sink_21,sink_12] 0
flow[sink_7,sink_5] -8.6170552513310312e+01
flow[sink_5,sink_17] -1.0252471917997698e+02
flow[sink_17,sink_4] -1.1887888584664364e+02
flow[sink_17,sink_8] 0
flow[sink_3,sink_23] 16.3541666666697
flow[sink_8,sink_20] -1.6354166666668334e+01
flow[sink_25,sink_20] 74.3791108184256
flow[sink_25,sink_15] -8.5951414893499646e+01
flow[sink_15,sink_29] -5.7689215894931579e+01
flow[sink_29,sink_28] 1.6354166666667879e+01
flow[sink_29,sink_2] 6.0970532331901381e+01
flow[sink_2,sink_15] 4.4616365665234753e+01
flow[sink_29,innode_7] -1.5136808156016752e+02
flow[innode_4,sink_19] 8.4956217030689146e+01
flow[sink_19,innode_3] 3.3477511008545662e+01
flow[innode_4,innode_5] 1.6354166666679703e+01
flow[sink_27,innode_5] -1.6354166666679703e+01
flow[sink_27,sink_19] 0
flow[sink_10,sink_11] 3.2708333333333641e+01
flow[sink_10,innode_2] -3.5124539355476543e+01
flow[sink_10,innode_3] -3.3477511008545662e+01
flow[innode_6,sink_25] -1.3168782969311451e+01
flow[sink_11,innode_1] 1.6354166666666970e+01
flow[sink_19,innode_2] 3.5124539355476543e+01
flow[source_3,innode_4] 1.0131038369736885e+02
flow[source_2,innode_7] 1.5136808156016752e+02
flow[sink_3,innode_8] 1.4422125392246033e+02
pressure[innode_1] 7.5563278896772829e+01
pressure[innode_2] 7.7571457178412018e+01
pressure[innode_3] 7.7497325021200467e+01
pressure[innode_4] 81.01325
pressure[innode_5] 8.1002000741808786e+01
pressure[innode_6] 7.4857683692880229e+01
pressure[innode_7] 81.01325
pressure[innode_8] 8.0421841979356060e+01
pressure[source_1] 81.01325
pressure[source_2] 81.01325
pressure[source_3] 81.01325
pressure[sink_1] 3.0515081189663897e+00
pressure[sink_2] 7.5420294408657455e+01
pressure[sink_3] 8.0421841979356060e+01
pressure[sink_4] 5.4068769103526215e+01
pressure[sink_5] 41.8882595685237
pressure[sink_6] 5.1525857293537634e+00
pressure[sink_7] 6.0506006329539526e+00
pressure[sink_8] 5.5986275674784650e+01
pressure[sink_9] 6.4985679816649437e+01
pressure[sink_10] 7.5714980204376374e+01
pressure[sink_11] 7.5563278896772829e+01
pressure[sink_12] 1.01325
pressure[sink_13] 7.4785086393078487e+01
pressure[sink_14] 7.4790786908539616e+01
pressure[sink_15] 7.5274631808049079e+01
pressure[sink_16] 7.4541629061955149e+01
pressure[sink_17] 49.5256100774766
pressure[sink_18] 4.7158807866005237e+00
pressure[sink_19] 7.7571457178412018e+01
pressure[sink_20] 5.7125931098372938e+01
pressure[sink_21] 1.01325
pressure[sink_22] 4.1152772613214
pressure[sink_23] 8.0257123967696273e+01
pressure[sink_24] 1.01325
pressure[sink_25] 7.4857683692880229e+01
pressure[sink_26] 6.5964518900591855e+01
pressure[sink_27] 8.0866291377726043e+01
pressure[sink_28] 7.6669464528426573e+01
pressure[sink_29] 7.6964746802043749e+01
interdiction[source_1,sink_3] 0
interdiction[innode_1,sink_16] 0
interdiction[innode_6,sink_13] 0
interdiction[sink_13,sink_14] 0
interdiction[sink_14,sink_10] 0
interdiction[sink_25,sink_26] 0
interdiction[sink_26,sink_9] 0
interdiction[sink_9,sink_18] 1
interdiction[sink_26,sink_4] 0
interdiction[sink_4,sink_20] 0
interdiction[sink_18,sink_6] 0
interdiction[sink_25,innode_8] 0
interdiction[sink_6,sink_7] 0
interdiction[sink_6,sink_22] 0
interdiction[sink_7,sink_24] 0
interdiction[sink_22,sink_1] 0
interdiction[sink_24,sink_21] 0
interdiction[sink_21,sink_12] 0
interdiction[sink_7,sink_5] 0
interdiction[sink_5,sink_17] 0
interdiction[sink_17,sink_4] 0
interdiction[sink_17,sink_8] 1
interdiction[sink_3,sink_23] 0
interdiction[sink_8,sink_20] 0
interdiction[sink_25,sink_20] 0
interdiction[sink_25,sink_15] 0
interdiction[sink_15,sink_29] 0
interdiction[sink_29,sink_28] 0
interdiction[sink_29,sink_2] 0
interdiction[sink_2,sink_15] 0
interdiction[sink_29,innode_7] 0
interdiction[innode_4,sink_19] 0
interdiction[sink_19,innode_3] 0
interdiction[innode_4,innode_5] 0
interdiction[sink_27,innode_5] 0
interdiction[sink_27,sink_19] 1
interdiction[sink_10,sink_11] 0
interdiction[sink_10,innode_2] 0
interdiction[sink_10,innode_3] 0
interdiction[innode_6,sink_25] 0
interdiction[sink_11,innode_1] 0
interdiction[sink_19,innode_2] 0
interdiction[source_3,innode_4] 0
interdiction[source_2,innode_7] 0
interdiction[sink_3,innode_8] 0
WCcheckFlow[source_1,sink_3] 39
WCcheckFlow[innode_1,sink_16] 1
WCcheckFlow[innode_6,sink_13] 13
WCcheckFlow[sink_13,sink_14] 12
WCcheckFlow[sink_14,sink_10] 11
WCcheckFlow[sink_25,sink_26] 15
WCcheckFlow[sink_26,sink_9] 1
WCcheckFlow[sink_9,sink_18] 0
WCcheckFlow[sink_26,sink_4] 13
WCcheckFlow[sink_4,sink_20] 2
WCcheckFlow[sink_18,sink_6] -1
WCcheckFlow[sink_25,innode_8] -36
WCcheckFlow[sink_6,sink_7] -4
WCcheckFlow[sink_6,sink_22] 2
WCcheckFlow[sink_7,sink_24] 3
WCcheckFlow[sink_22,sink_1] 1
WCcheckFlow[sink_24,sink_21] 2
WCcheckFlow[sink_21,sink_12] 1
WCcheckFlow[sink_7,sink_5] -8
WCcheckFlow[sink_5,sink_17] -9
WCcheckFlow[sink_17,sink_4] -10
WCcheckFlow[sink_17,sink_8] 0
WCcheckFlow[sink_3,sink_23] 1
WCcheckFlow[sink_8,sink_20] -1
WCcheckFlow[sink_25,sink_20] 0
WCcheckFlow[sink_25,sink_15] 6
WCcheckFlow[sink_15,sink_29] 5
WCcheckFlow[sink_29,sink_28] 1
WCcheckFlow[sink_29,sink_2] 1
WCcheckFlow[sink_2,sink_15] 0
WCcheckFlow[sink_29,innode_7] 2
WCcheckFlow[innode_4,sink_19] -4
WCcheckFlow[sink_19,innode_3] -5
WCcheckFlow[innode_4,innode_5] 2
WCcheckFlow[sink_27,innode_5] -1
WCcheckFlow[sink_27,sink_19] 0
WCcheckFlow[sink_10,sink_11] 3
WCcheckFlow[sink_10,innode_2] 1
WCcheckFlow[sink_10,innode_3] 6
WCcheckFlow[innode_6,sink_25] -14
WCcheckFlow[sink_11,innode_1] 2
WCcheckFlow[sink_19,innode_2] 0
WCcheckFlow[source_3,innode_4] -1
WCcheckFlow[source_2,innode_7] -1
WCcheckFlow[sink_3,innode_8] 37
